120
150
83
67
68
82
56
63
29
20
32
100
52
67
43
50
46
40
40
30
37
55
30
30
69
53
68
92
30
58
73
98
73
52
23
43
35
69
93
51
59
90
27
93
57
30
30
83
67
52
98
57
93
29
51
26
100
73
50
28
28
90
70
47
52
98
68
47
40
82
100
60
90
47
35
52
98
33
32
28
100
50
94
56
81
68
68
98
35
98
62
37
90
67
83
60
57
93
52
52
56
40
98
40
83
29
81
29
52
51
47
42
51
90
60
57
83
70
40
67
50
100
